projected/problems_b25_r0_d7_m100_s666/_DIMACS/b25_d7_r0_s666_005.cnf
p cnf 252 441 24
c p show 1 2 3 4 5 6 7 8 9 10 11 12 13 14 15 16 17 18 19 20 21 22 23 24
-196 12 14 0
-197 -13 0
-197 -8 0
-198 197 0
-198 196 0
-199 13 8 0
-200 -12 0
-200 -14 0
-201 200 0
-201 199 0
-202 201 198 0
-203 22 12 0
-204 14 13 0
-205 204 0
-205 203 0
-206 205 202 0
-207 8 -15 0
-208 -4 -6 0
-209 208 0
-209 207 0
-210 -18 0
-210 -24 0
-211 -24 0
-211 -10 0
-212 211 210 0
-213 212 209 0
-214 213 206 0
-215 -4 0
-215 -18 0
-216 -17 0
-216 -14 0
-217 216 215 0
-218 19 5 0
-219 -5 -19 0
-220 219 0
-220 218 0
-221 -19 0
-221 19 0
-222 221 220 0
-223 222 0
-223 217 0
-224 -14 0
-224 13 0
-225 -13 0
-225 14 0
-226 225 224 0
-227 -12 0
-227 -19 0
-228 227 226 0
-229 20 13 0
-230 16 -4 0
-231 4 -16 0
-232 231 0
-232 230 0
-233 232 0
-233 229 0
-234 233 0
-234 228 0
-235 234 0
-235 223 0
-236 235 0
-236 214 0
-237 -3 13 0
-238 7 -3 0
-239 238 0
-239 237 0
-240 3 -8 0
-241 17 0
-241 12 0
-242 -12 0
-242 -17 0
-243 242 241 0
-244 243 0
-244 240 0
-245 244 0
-245 239 0
-246 -16 22 0
-247 -22 16 0
-248 247 0
-248 246 0
-249 -19 -3 0
-250 249 0
-250 248 0
-251 9 0
-251 20 0
-252 -5 0
-252 17 0
-25 252 251 0
-26 25 0
-26 250 0
-27 26 245 0
-28 -10 19 0
-117 -12 18 0
-123 117 0
-123 28 0
-129 -16 0
-129 -20 0
-29 18 0
-29 17 0
-30 -17 0
-30 -18 0
-31 30 29 0
-32 31 0
-32 129 0
-33 32 123 0
-34 -2 0
-34 -21 0
-35 21 0
-35 2 0
-36 35 34 0
-37 -20 5 0
-38 37 36 0
-39 23 0
-39 -11 0
-40 11 0
-40 -23 0
-41 40 39 0
-42 5 0
-42 -17 0
-43 42 0
-43 41 0
-44 43 0
-44 38 0
-45 44 0
-45 33 0
-46 45 0
-46 27 0
-47 46 0
-47 236 0
-48 2 1 0
-49 21 14 0
-50 49 48 0
-51 -16 0
-51 4 0
-52 -14 3 0
-53 52 51 0
-54 53 50 0
-55 19 -10 0
-56 -13 21 0
-57 56 55 0
-58 -6 14 0
-59 -13 0
-59 22 0
-60 -22 0
-60 13 0
-61 60 59 0
-62 61 0
-62 58 0
-63 62 57 0
-64 63 0
-64 54 0
-65 -12 15 0
-66 21 -16 0
-67 66 0
-67 65 0
-68 8 4 0
-69 5 12 0
-70 69 68 0
-71 70 0
-71 67 0
-72 -21 0
-72 14 0
-73 -9 0
-73 22 0
-74 73 0
-74 72 0
-75 9 -22 0
-76 21 -14 0
-77 76 0
-77 75 0
-78 77 74 0
-79 22 -23 0
-80 17 -5 0
-81 5 -17 0
-82 81 0
-82 80 0
-83 82 79 0
-84 83 0
-84 78 0
-85 84 0
-85 71 0
-86 85 64 0
-87 -6 21 0
-88 -6 -24 0
-89 88 87 0
-90 -22 0
-90 2 0
-91 23 0
-91 -15 0
-92 91 90 0
-93 92 0
-93 89 0
-94 22 -2 0
-95 -23 15 0
-96 95 0
-96 94 0
-97 6 0
-97 -21 0
-98 6 0
-98 24 0
-99 98 0
-99 97 0
-100 99 0
-100 96 0
-101 100 93 0
-102 -1 0
-103 -5 0
-103 -8 0
-104 103 102 0
-105 3 20 0
-106 -13 -20 0
-107 106 105 0
-108 107 0
-108 104 0
-109 108 0
-109 101 0
-110 -9 0
-110 -11 0
-111 -8 -4 0
-112 111 0
-112 110 0
-113 20 0
-113 14 0
-114 -20 0
-114 7 0
-115 114 113 0
-116 115 112 0
-118 24 0
-118 -15 0
-119 11 0
-119 -1 0
-120 119 0
-120 118 0
-121 -12 0
-121 23 0
-122 12 -4 0
-124 4 -12 0
-125 124 0
-125 122 0
-126 125 121 0
-127 126 0
-127 120 0
-128 127 0
-128 116 0
-130 128 0
-130 109 0
-131 130 86 0
-132 96 99 0
-133 89 92 0
-134 133 0
-134 132 0
-135 1 0
-136 5 8 0
-137 136 0
-137 135 0
-138 -3 0
-138 -20 0
-139 13 0
-139 20 0
-140 139 0
-140 138 0
-141 140 137 0
-142 141 134 0
-143 9 11 0
-144 8 0
-144 4 0
-145 144 143 0
-146 -20 -14 0
-147 20 -7 0
-148 147 0
-148 146 0
-149 148 0
-149 145 0
-150 -24 15 0
-151 -11 1 0
-152 151 150 0
-153 12 -23 0
-154 -12 0
-154 4 0
-155 -4 0
-155 12 0
-156 155 154 0
-157 156 0
-157 153 0
-158 157 152 0
-159 158 149 0
-160 159 142 0
-161 -2 0
-161 -1 0
-162 -21 0
-162 -14 0
-163 162 0
-163 161 0
-164 14 0
-164 -3 0
-165 164 0
-165 230 0
-166 165 0
-166 163 0
-167 -19 0
-167 10 0
-168 13 0
-168 -21 0
-169 168 0
-169 167 0
-170 6 0
-170 -14 0
-171 13 -22 0
-172 22 -13 0
-173 172 0
-173 171 0
-174 173 170 0
-175 174 0
-175 169 0
-176 175 166 0
-177 12 0
-177 -15 0
-178 -21 0
-178 16 0
-179 178 177 0
-180 -8 0
-180 -4 0
-181 -5 0
-181 -12 0
-182 181 0
-182 180 0
-183 182 179 0
-184 75 76 0
-185 72 73 0
-186 185 0
-186 184 0
-187 -22 0
-187 23 0
-188 -17 0
-188 5 0
-189 252 188 0
-190 189 0
-190 187 0
-191 190 186 0
-192 191 183 0
-193 192 0
-193 176 0
-194 193 160 0
-195 194 0
-195 131 0
195 0
47 0
-197 -199 0
-196 -200 0
-200 -196 0
-90 -94 0
-95 -91 0
-91 -95 0
-92 -96 0
-87 -97 0
-88 -98 0
-89 -99 0
-99 -89 0
-134 -101 0
-101 -134 0
-135 -102 0
-136 -103 0
-137 -104 0
-104 -137 0
-138 -105 0
-105 -138 0
-139 -106 0
-106 -139 0
-107 -140 0
-108 -141 0
-109 -142 0
-110 -143 0
-144 -111 0
-111 -144 0
-112 -145 0
-113 -146 0
-146 -113 0
-147 -114 0
-148 -115 0
-115 -148 0
-116 -149 0
-150 -118 0
-151 -119 0
-152 -120 0
-120 -152 0
-153 -121 0
-125 -156 0
-156 -125 0
-157 -126 0
-126 -157 0
-127 -158 0
-128 -159 0
-130 -160 0
-160 -130 0
-48 -161 0
-49 -162 0
-50 -163 0
-230 -51 0
-51 -230 0
-52 -164 0
-53 -165 0
-54 -166 0
-166 -54 0
-167 -55 0
-168 -56 0
-169 -57 0
-57 -169 0
-58 -170 0
-170 -58 0
-173 -61 0
-174 -62 0
-62 -174 0
-63 -175 0
-175 -63 0
-176 -64 0
-64 -176 0
-177 -65 0
-66 -178 0
-178 -66 0
-179 -67 0
-67 -179 0
-68 -180 0
-180 -68 0
-69 -181 0
-181 -69 0
-182 -70 0
-70 -182 0
-71 -183 0
-73 -75 0
-76 -72 0
-186 -78 0
-78 -186 0
-79 -187 0
-187 -79 0
-82 -189 0
-189 -82 0
-190 -83 0
-83 -190 0
-84 -191 0
-85 -192 0
-86 -193 0
