projected/problems_b25_r0_d7_m100_s666/b25_d7_r0_s666_005.smt2
(set-logic QF_UF)
(declare-fun A1 () Bool)
(declare-fun A2 () Bool)
(declare-fun A3 () Bool)
(declare-fun A4 () Bool)
(declare-fun A5 () Bool)
(declare-fun A6 () Bool)
(declare-fun A7 () Bool)
(declare-fun A8 () Bool)
(declare-fun A9 () Bool)
(declare-fun A10 () Bool)
(declare-fun A11 () Bool)
(declare-fun A12 () Bool)
(declare-fun A13 () Bool)
(declare-fun A14 () Bool)
(declare-fun A15 () Bool)
(declare-fun A16 () Bool)
(declare-fun A17 () Bool)
(declare-fun A18 () Bool)
(declare-fun A19 () Bool)
(declare-fun A20 () Bool)
(declare-fun A21 () Bool)
(declare-fun A22 () Bool)
(declare-fun A23 () Bool)
(declare-fun A24 () Bool)
(assert (let ((.def_0 (not A8))) (let ((.def_1 (not A13))) (let ((.def_2 (and .def_1 .def_0))) (let ((.def_3 (or A12 A14))) (let ((.def_4 (not .def_3))) (let ((.def_5 (= .def_4 .def_2))) (let ((.def_6 (not .def_5))) (let ((.def_7 (or A22 A12))) (let ((.def_8 (not .def_7))) (let ((.def_9 (not A14))) (let ((.def_10 (and .def_9 .def_1))) (let ((.def_11 (or .def_10 .def_8))) (let ((.def_12 (not .def_11))) (let ((.def_13 (or .def_12 .def_6))) (let ((.def_14 (not .def_13))) (let ((.def_15 (not A15))) (let ((.def_16 (or A8 .def_15))) (let ((.def_17 (not A6))) (let ((.def_18 (not A4))) (let ((.def_19 (or .def_18 .def_17))) (let ((.def_20 (and .def_19 .def_16))) (let ((.def_21 (or A18 A24))) (let ((.def_22 (not A10))) (let ((.def_23 (not A24))) (let ((.def_24 (and .def_23 .def_22))) (let ((.def_25 (not .def_24))) (let ((.def_26 (and .def_25 .def_21))) (let ((.def_27 (not .def_26))) (let ((.def_28 (or .def_27 .def_20))) (let ((.def_29 (not .def_28))) (let ((.def_30 (and .def_29 .def_14))) (let ((.def_31 (or A4 A18))) (let ((.def_32 (not .def_31))) (let ((.def_33 (or A17 A14))) (let ((.def_34 (not .def_33))) (let ((.def_35 (or .def_34 .def_32))) (let ((.def_36 (not A19))) (let ((.def_37 (= A5 .def_36))) (let ((.def_38 (or A19 .def_36))) (let ((.def_39 (not .def_38))) (let ((.def_40 (or .def_39 .def_37))) (let ((.def_41 (and .def_40 .def_35))) (let ((.def_42 (not .def_41))) (let ((.def_43 (= .def_1 .def_9))) (let ((.def_44 (not .def_43))) (let ((.def_45 (not A12))) (let ((.def_46 (and .def_45 .def_36))) (let ((.def_47 (or .def_46 .def_44))) (let ((.def_48 (or A20 A13))) (let ((.def_49 (not .def_48))) (let ((.def_50 (not A16))) (let ((.def_51 (= .def_18 .def_50))) (let ((.def_52 (not .def_51))) (let ((.def_53 (or .def_52 .def_49))) (let ((.def_54 (not .def_53))) (let ((.def_55 (and .def_54 .def_47))) (let ((.def_56 (not .def_55))) (let ((.def_57 (or .def_56 .def_42))) (let ((.def_58 (or .def_57 .def_30))) (let ((.def_59 (and A3 .def_1))) (let ((.def_60 (not A3))) (let ((.def_61 (or A7 .def_60))) (let ((.def_62 (not .def_61))) (let ((.def_63 (or .def_62 .def_59))) (let ((.def_64 (not .def_63))) (let ((.def_65 (and .def_60 A8))) (let ((.def_66 (= .def_45 A17))) (let ((.def_67 (or .def_66 .def_65))) (let ((.def_68 (not .def_67))) (let ((.def_69 (and .def_68 .def_64))) (let ((.def_70 (not .def_69))) (let ((.def_71 (= A22 A16))) (let ((.def_72 (or .def_36 .def_60))) (let ((.def_73 (and .def_72 .def_71))) (let ((.def_74 (not A20))) (let ((.def_75 (not A9))) (let ((.def_76 (or .def_75 .def_74))) (let ((.def_77 (not .def_76))) (let ((.def_78 (not A5))) (let ((.def_79 (and .def_78 A17))) (let ((.def_80 (or .def_79 .def_77))) (let ((.def_81 (and .def_80 .def_73))) (let ((.def_82 (not .def_81))) (let ((.def_83 (and .def_82 .def_70))) (let ((.def_84 (not .def_83))) (let ((.def_85 (and A10 .def_36))) (let ((.def_86 (or .def_45 A18))) (let ((.def_87 (not .def_86))) (let ((.def_88 (or .def_87 .def_85))) (let ((.def_89 (and .def_50 .def_74))) (let ((.def_90 (not .def_89))) (let ((.def_91 (not A17))) (let ((.def_92 (= .def_91 A18))) (let ((.def_93 (or .def_92 .def_90))) (let ((.def_94 (and .def_93 .def_88))) (let ((.def_95 (not .def_94))) (let ((.def_96 (not A2))) (let ((.def_97 (= A21 .def_96))) (let ((.def_98 (not .def_97))) (let ((.def_99 (or .def_74 A5))) (let ((.def_100 (or .def_99 .def_98))) (let ((.def_101 (not .def_100))) (let ((.def_102 (= A11 A23))) (let ((.def_103 (not .def_102))) (let ((.def_104 (or .def_78 A17))) (let ((.def_105 (not .def_104))) (let ((.def_106 (and .def_105 .def_103))) (let ((.def_107 (not .def_106))) (let ((.def_108 (or .def_107 .def_101))) (let ((.def_109 (not .def_108))) (let ((.def_110 (and .def_109 .def_95))) (let ((.def_111 (and .def_110 .def_84))) (let ((.def_112 (not .def_111))) (let ((.def_113 (or .def_112 .def_58))) (let ((.def_114 (not .def_113))) (let ((.def_115 (not A22))) (let ((.def_116 (and .def_115 A2))) (let ((.def_117 (not A23))) (let ((.def_118 (or .def_117 A15))) (let ((.def_119 (not .def_118))) (let ((.def_120 (or .def_119 .def_116))) (let ((.def_121 (or .def_17 A21))) (let ((.def_122 (or .def_17 .def_23))) (let ((.def_123 (or .def_122 .def_121))) (let ((.def_124 (not .def_123))) (let ((.def_125 (= .def_124 .def_120))) (let ((.def_126 (not .def_125))) (let ((.def_127 (and A1 A1))) (let ((.def_128 (or A5 A8))) (let ((.def_129 (and .def_128 .def_127))) (let ((.def_130 (not .def_129))) (let ((.def_131 (and .def_60 .def_74))) (let ((.def_132 (not .def_131))) (let ((.def_133 (and A13 A20))) (let ((.def_134 (not .def_133))) (let ((.def_135 (or .def_134 .def_132))) (let ((.def_136 (and .def_135 .def_130))) (let ((.def_137 (and .def_136 .def_126))) (let ((.def_138 (not A11))) (let ((.def_139 (and .def_75 .def_138))) (let ((.def_140 (and A8 A4))) (let ((.def_141 (not .def_140))) (let ((.def_142 (and .def_141 .def_139))) (let ((.def_143 (and A20 A14))) (let ((.def_144 (not .def_143))) (let ((.def_145 (not A7))) (let ((.def_146 (or A20 .def_145))) (let ((.def_147 (and .def_146 .def_144))) (let ((.def_148 (not .def_147))) (let ((.def_149 (or .def_148 .def_142))) (let ((.def_150 (or .def_23 A15))) (let ((.def_151 (or .def_138 A1))) (let ((.def_152 (or .def_151 .def_150))) (let ((.def_153 (not .def_152))) (let ((.def_154 (or A12 .def_117))) (let ((.def_155 (= .def_18 .def_45))) (let ((.def_156 (not .def_155))) (let ((.def_157 (and .def_156 .def_154))) (let ((.def_158 (not .def_157))) (let ((.def_159 (and .def_158 .def_153))) (let ((.def_160 (and .def_159 .def_149))) (let ((.def_161 (and .def_160 .def_137))) (let ((.def_162 (not .def_161))) (let ((.def_163 (or A2 A1))) (let ((.def_164 (or A21 A14))) (let ((.def_165 (or .def_164 .def_163))) (let ((.def_166 (or A16 .def_18))) (let ((.def_167 (not .def_166))) (let ((.def_168 (or .def_9 A3))) (let ((.def_169 (or .def_168 .def_167))) (let ((.def_170 (or .def_169 .def_165))) (let ((.def_171 (not .def_170))) (let ((.def_172 (and .def_36 A10))) (let ((.def_173 (not A21))) (let ((.def_174 (and A13 .def_173))) (let ((.def_175 (and .def_174 .def_172))) (let ((.def_176 (not .def_175))) (let ((.def_177 (or .def_17 A14))) (let ((.def_178 (not .def_177))) (let ((.def_179 (= .def_115 .def_1))) (let ((.def_180 (or .def_179 .def_178))) (let ((.def_181 (not .def_180))) (let ((.def_182 (or .def_181 .def_176))) (let ((.def_183 (not .def_182))) (let ((.def_184 (or .def_183 .def_171))) (let ((.def_185 (not .def_184))) (let ((.def_186 (and A12 .def_15))) (let ((.def_187 (or A21 .def_50))) (let ((.def_188 (not .def_187))) (let ((.def_189 (or .def_188 .def_186))) (let ((.def_190 (not .def_189))) (let ((.def_191 (or A8 A4))) (let ((.def_192 (not .def_191))) (let ((.def_193 (or A5 A12))) (let ((.def_194 (not .def_193))) (let ((.def_195 (and .def_194 .def_192))) (let ((.def_196 (not .def_195))) (let ((.def_197 (and .def_196 .def_190))) (let ((.def_198 (and .def_75 A22))) (let ((.def_199 (or A21 .def_9))) (let ((.def_200 (= .def_199 .def_198))) (let ((.def_201 (not .def_200))) (let ((.def_202 (or A22 .def_117))) (let ((.def_203 (not .def_202))) (let ((.def_204 (= .def_78 .def_91))) (let ((.def_205 (not .def_204))) (let ((.def_206 (and .def_205 .def_203))) (let ((.def_207 (not .def_206))) (let ((.def_208 (and .def_207 .def_201))) (let ((.def_209 (and .def_208 .def_197))) (let ((.def_210 (or .def_209 .def_185))) (let ((.def_211 (= .def_210 .def_162))) (let ((.def_212 (and .def_211 .def_114))) .def_212))))))))))))))))))))))))))))))))))))))))))))))))))))))))))))))))))))))))))))))))))))))))))))))))))))))))))))))))))))))))))))))))))))))))))))))))))))))))))))))))))))))))))))))))))))))))))))))))))))))))))))))))))))))
(check-sat)
